NAME: PointSet_Angle_5_2
TYPE: TSP
COMMENT: Points chosen discrete uniformly at random out of ${0, \ldots, 500}^2$.
DIMENSION: 5
EDGE_WEIGHT_TYPE: EUC_2D
NODE_COORD_SECTION
1 129 127
2 176 368
3 81 303
4 222 228
5 64 120
EOF
